32      4       
15      12      13      20      
0       0       0       0       0       3       2       4       6       
4       0       8       0       5       2       5       3       
10      6       0       0       4       2       10      7       
9       6       0       8       0       2       10      7       
1       0       0       7       6       3       10      9       8       
6       0       5       6       0       1       7       
5       0       12      0       15      2       9       8       
7       1       0       0       4       1       11      
7       0       6       7       0       1       11      
7       0       4       5       0       1       11      
8       0       4       0       19      2       14      12      
5       0       0       12      2       1       13      
6       1       0       0       4       2       16      15      
2       0       1       0       17      2       17      16      
2       15      12      0       0       2       23      17      
8       0       6       13      0       4       23      21      20      19      
9       0       6       0       19      1       18      
3       5       1       0       0       3       21      20      19      
10      1       0       0       20      2       24      22      
5       10      0       1       0       3       29      25      24      
2       11      0       0       9       3       29      25      24      
4       15      8       0       0       3       29      28      25      
1       9       0       2       0       2       29      24      
7       14      0       4       0       3       28      27      26      
4       0       0       13      7       2       27      26      
3       0       4       0       8       2       31      30      
10      3       0       1       0       2       31      30      
10      0       1       0       11      2       31      30      
5       0       12      9       0       2       31      30      
5       13      0       9       0       1       32      
4       3       0       1       0       1       32      
0       0       0       0       0       0       
